c Sudoku solution
p cnf 729 0
146 0
171 0
187 0
233 0
362 0
388 0
393 0
424 0
439 0
461 0
518 0
547 0
574 0
659 0
664 0
673 0
735 0
772 0
816 0
855 0
867 0
884 0
928 0
138 0
942 0
956 0
566 0
977 0
321 0
983 0
995 0
969 0
531 0
911 0
832 0
934 0
349 0
768 0
163 0
154 0
357 0
294 0
314 0
375 0
336 0
626 0
637 0
497 0
744 0
265 0
796 0
599 0
192 0
125 0
119 0
585 0
217 0
222 0
713 0
829 0
727 0
751 0
843 0
789 0
891 0
878 0
523 0
552 0
241 0
258 0
453 0
476 0
482 0
681 0
698 0
415 0
612 0
448 0
645 0
279 0
286 0
